(set-info :smt-lib-version 2.8)
(set-logic QF_EIA)
(set-info :source |
Generated by: Florian Frohn
Generator: LoAT
Application: proving lower bounds on the worst-case runtime of transition systems
Target solver: SwInE
Time limit: 1.0
Benchmarks generated by the verification tool LoAT to evaluate the SMT solver
SwInE. We extracted all benchmarks with exponentiation that were generated by
LoAT when analyzing the examples from the category LIA-Lin (linear CHCs with
linear integer arithmetic) of the CHC competitions 2022 and 2023, and when
analyzing the examples from the categories "Termination of Integer Transition
Systems" and "Complexity of Integer Transition Systems" of the Termination and
Complexity Competition 2024. From the entire set, we selected those where
* SwInE v0.1.0 or SwInE-Z3 v0.1.2 failed or needed more than 1 second, or
* SwInE-Z3 v0.1.2 failed without phasing, a technique to prevent SwInE from
  computing with huge constants (described here
  https://arxiv.org/abs/2502.04761)
If several selected benchmarks only differed in lines not containing
exponentiation, we kept only one of them. This benchmark is known to be
satisfiable with the slightly different semantics of exponentiation used by the
versions of SwInE mentioned above.
|)
(set-info :license "https://creativecommons.org/licenses/by/4.0/")
(set-info :category "industrial")
(set-info :status unknown)

(declare-fun i1 () Int)
(declare-fun it2131 () Int)
(declare-fun i2 () Int)
(declare-fun it2132 () Int)
(declare-fun i3 () Int)
(declare-fun it2133 () Int)
(declare-fun it2134 () Int)
(declare-fun i4 () Int)
(declare-fun i5 () Int)
(declare-fun it2135 () Int)
(declare-fun i6 () Int)
(declare-fun it2136 () Int)
(declare-fun i7 () Int)
(declare-fun it2137 () Int)
(declare-fun it2145 () Int)
(declare-fun it2146 () Int)
(declare-fun it2147 () Int)
(declare-fun it2148 () Int)
(declare-fun it2149 () Int)
(declare-fun it2150 () Int)
(declare-fun it2151 () Int)
(declare-fun it2152 () Int)
(declare-fun it2153 () Int)
(declare-fun it2154 () Int)
(declare-fun it2155 () Int)
(declare-fun it2156 () Int)
(declare-fun it2157 () Int)
(declare-fun it2158 () Int)
(declare-fun it316 () Int)
(declare-fun it2164 () Int)
(declare-fun it2165 () Int)
(declare-fun it2166 () Int)
(declare-fun it2167 () Int)
(declare-fun it2168 () Int)
(declare-fun it2169 () Int)
(declare-fun it2170 () Int)
(declare-fun it2175 () Int)
(declare-fun it2176 () Int)
(declare-fun it2177 () Int)
(declare-fun it2178 () Int)
(declare-fun it2179 () Int)
(declare-fun it2180 () Int)
(declare-fun it2181 () Int)
(assert (= (+ i1 (- 1)) 0))
(assert (= (+ it2131 (- 5)) 0))
(assert (= (+ it2132 (* i2 (- 1)) (- 4)) 0))
(assert (= (+ it2133 (* i3 (- 1))) 0))
(assert (= (+ (* i4 (- 1)) it2134) 0))
(assert (= (+ it2135 (* i5 (- 1))) 0))
(assert (= (+ it2136 (* i6 (- 1))) 0))
(assert (= (+ it2137 (* i7 (- 1))) 0))
(assert (and (= (+ it2131 (- 5)) 0) (> (+ it2134 (- 2)) 0)))
(assert (= (+ it2145 (- 18)) 0))
(assert (= (+ it2146 (* it2132 (- 1)) (- 12)) 0))
(assert (= (+ it2147 (* it2133 (- 1))) 0))
(assert (= (+ it2148 (* it2134 (- 1))) 0))
(assert (= (+ it2149 (* it2135 (- 1))) 0))
(assert (= it2150 0))
(assert (= (+ it2151 (* it2137 (- 1))) 0))
(assert (and (= (+ it2145 (- 18)) 0) (<= (+ it2150 (* it2148 (- 1)) 2) 0)))
(assert (= (+ it2152 (- 20)) 0))
(assert (= (+ (* it2146 (- 1)) it2153 (- 2)) 0))
(assert (= (+ (* it2147 (- 1)) it2154) 0))
(assert (= (+ (* it2148 (- 1)) it2155) 0))
(assert (= it2156 0))
(assert (= (+ (* it2150 (- 1)) it2157) 0))
(assert (= (+ (* it2151 (- 1)) it2158) 0))
(assert (let ((a!1 (+ (* (+ 0 it2156) (** 2 (+ it316 (- 1))) (+ 0 (- 2)))
              (+ 0 (* it2157 (- 1)))
              (* (** 2 it316) (+ 0 (- 2)))
              (+ 0 it2155)
              (+ 0 1))))
  (and (>= (+ (* it2152 (- 1)) 20) 0)
       (>= (+ it2152 (- 20)) 0)
       (>= (+ (* it2156 (- 2)) (* it2157 (- 1)) it2155 (- 3)) 0)
       (>= a!1 (+ 0 0))
       (> a!1 (+ 0 0))
       (>= (+ it316 (- 1)) 0)
       (> (+ (* it2156 (- 2)) (* it2157 (- 1)) it2155 (- 3)) 0))))
(assert (= (+ (* it2152 (- 1)) it2164) 0))
(assert (= (+ (* it2153 (- 1)) it2165 (* it316 (- 6))) 0))
(assert (= (+ it2166 (* it2154 (- 1))) 0))
(assert (= (+ it2167 (* it2155 (- 1))) 0))
(assert (let ((a!1 (+ (* (+ 0 it2156) (** 2 it316) (+ 0 (- 1)))
              (* (** 2 (+ it316 1)) (+ 0 (- 1)))
              (+ 0 it2168)
              (+ 0 2))))
  (= a!1 (+ 0 0))))
(assert (= (+ it2169 (* it2157 (- 1))) 0))
(assert (let ((a!1 (+ (* (+ 0 it2156) (** 2 (+ it316 (- 1))) (+ 0 (- 2)))
              (+ 0 it2170)
              (* (** 2 it316) (+ 0 (- 2)))
              (+ 0 2))))
  (= a!1 (+ 0 0))))
(assert (and (= (+ it2164 (- 20)) 0) (<= (+ it2169 (* it2167 (- 1)) (* it2168 2) 3) 0)))
(assert (= (+ it2175 (- 21)) 0))
(assert (= (+ (* it2165 (- 1)) it2176 (- 1)) 0))
(assert (= (+ it2177 (* it2166 (- 1))) 0))
(assert (= (+ it2178 (* it2167 (- 1))) 0))
(assert (= (+ it2179 (* it2168 (- 1))) 0))
(assert (= (+ (* it2169 (- 1)) it2180) 0))
(assert (= (+ it2181 (* it2170 (- 1))) 0))
(assert (and (= (+ it2175 (- 21)) 0) (= (+ (* it2178 (- 1)) (* it2179 2) it2180 3) 0)))
(check-sat)
(exit)
